
  12    4
  10   10   10   10

   0   0   0   0   0   5 2 3 4 10 11 
   5  10  10  10  10   3 9 8 5 
   7  10  10  10  10   2 6 5 
   9  10  10  10  10   2 9 5 
   1  10  10  10  10   1 7 
   4  10  10  10  10   1 8 
   5  10  10  10  10   1 12
   8  10  10  10  10   1 12
   9  10  10  10  10   1 12
   2  10  10  10  10   1 12
   8  10  10  10  10   1 12
   0   0   0   0   0   0 
